NAME : random188.1046.tour
COMMENT : Length = 1046
COMMENT : Found by LKH [Keld Helsgaun] Mon Dec 30 21:18:56 2024
TYPE : TOUR
DIMENSION : 188
TOUR_SECTION
1
37
28
30
88
6
61
134
117
123
89
146
56
115
68
142
67
181
147
102
35
26
176
95
175
19
168
66
126
43
74
150
25
163
64
41
174
27
36
53
14
46
73
121
39
7
63
42
154
188
112
60
98
9
166
105
3
172
21
58
137
83
156
59
161
90
50
141
31
169
179
167
183
93
51
71
29
72
15
118
171
86
49
76
84
16
129
2
151
55
185
162
160
78
65
96
159
152
85
119
111
54
155
103
173
4
82
97
143
40
164
104
113
136
44
17
10
38
131
92
122
75
12
158
77
114
184
11
149
45
108
34
144
23
69
178
99
62
153
101
127
80
125
186
124
52
81
165
32
18
91
109
79
135
140
100
47
145
133
48
148
187
132
22
13
110
87
33
5
139
20
116
24
94
57
8
120
70
170
138
130
106
107
128
182
180
177
157
-1
EOF
